c colouring generated by benchmark framework
p edge 100 1470
v 1 2
v 2 8
v 3 5
v 4 7
v 5 4
v 6 1
v 7 6
v 8 10
v 9 11
v 10 12
v 11 1
v 12 4
v 13 3
v 14 6
v 15 8
v 16 12
v 17 0
v 18 7
v 19 5
v 20 9
v 21 12
v 22 6
v 23 0
v 24 2
v 25 1
v 26 5
v 27 3
v 28 8
v 29 10
v 30 4
v 31 8
v 32 9
v 33 11
v 34 10
v 35 12
v 36 0
v 37 1
v 38 2
v 39 6
v 40 5
v 41 7
v 42 5
v 43 2
v 44 3
v 45 6
v 46 4
v 47 11
v 48 0
v 49 1
v 50 10
v 51 10
v 52 0
v 53 4
v 54 1
v 55 2
v 56 8
v 57 7
v 58 3
v 59 9
v 60 6
v 61 5
v 62 1
v 63 8
v 64 0
v 65 7
v 66 10
v 67 9
v 68 6
v 69 4
v 70 2
v 71 11
v 72 2
v 73 7
v 74 4
v 75 3
v 76 6
v 77 5
v 78 1
v 79 0
v 80 8
v 81 4
v 82 3
v 83 1
v 84 5
v 85 10
v 86 2
v 87 8
v 88 9
v 89 12
v 90 11
v 91 6
v 92 12
v 93 9
v 94 8
v 95 0
v 96 11
v 97 10
v 98 4
v 99 7
v 100 3
